letting n =  10
letting blocks =  [[1, 1], [1, 4], [1, 5], [1, 7], [2, 4], [2, 8], [3, 4], [3, 6], [3, 8], [4, 1], [4, 4], [4, 5], [4, 7], [5, 2], [5, 4], [5, 7], [5, 10], [6, 2], [6, 3], [6, 5], [6, 6], [7, 1], [7, 4], [7, 7], [7, 8], [7, 10], [8, 2], [8, 9], [9, 2], [9, 6], [9, 8], [10, 3], [10, 7], [10, 9]]
